Version identifier: 20.1.0.0 | 2020-11-10 | 9bedb6d68
CPXPARAM_Read_DataCheck                          1
Tried aggregator 2 times.
MIP Presolve eliminated 45 rows and 2925 columns.
MIP Presolve modified 15 coefficients.
Aggregator did 30 substitutions.
Reduced MIP has 144 rows, 765 columns, and 3195 nonzeros.
Reduced MIP has 60 binaries, 705 generals, 0 SOSs, and 0 indicators.
Presolve time = 0.00 sec. (4.36 ticks)
Found incumbent of value 404.000000 after 0.02 sec. (8.39 ticks)
Probing fixed 0 vars, tightened 45 bounds.
Probing time = 0.00 sec. (1.53 ticks)
Tried aggregator 1 time.
Detecting symmetries...
MIP Presolve eliminated 1 rows and 60 columns.
MIP Presolve modified 16 coefficients.
Reduced MIP has 143 rows, 705 columns, and 2985 nonzeros.
Reduced MIP has 60 binaries, 645 generals, 0 SOSs, and 0 indicators.
Presolve time = 0.00 sec. (2.42 ticks)
Probing time = 0.00 sec. (1.43 ticks)
Clique table members: 16.
MIP emphasis: balance optimality and feasibility.
MIP search method: dynamic search.
Parallel mode: deterministic, using up to 12 threads.
Root relaxation solution time = 0.00 sec. (2.26 ticks)

        Nodes                                         Cuts/
   Node  Left     Objective  IInf  Best Integer    Best Bound    ItCnt     Gap

*     0+    0                          404.0000        0.0000           100.00%
*     0+    0                          388.0000        0.0000           100.00%
*     0+    0                          379.0000        0.0000           100.00%
      0     0      159.0000    60      379.0000      159.0000      168   58.05%
      0     0      159.0000    55      379.0000   Impl Bds: 5      226   58.05%
      0     0      159.0000    83      379.0000      Cuts: 45      351   58.05%
      0     0      159.0000    57      379.0000       Cuts: 8      443   58.05%
      0     0      159.0000    65      379.0000      Cuts: 22      579   58.05%
*     0+    0                          226.0000      159.0000            29.65%
*     0+    0                          191.0000      159.0000            16.75%
      0     2      159.0000    35      191.0000      159.0000      579   16.75%
Elapsed time = 0.20 sec. (95.16 ticks, tree = 0.02 MB, solutions = 5)

Implied bound cuts applied:  84
Flow cuts applied:  3

Root node processing (before b&c):
  Real time             =    0.19 sec. (95.10 ticks)
Parallel b&c, 12 threads:
  Real time             =    0.16 sec. (44.56 ticks)
  Sync time (average)   =    0.11 sec.
  Wait time (average)   =    0.00 sec.
                          ------------
Total (root+branch&cut) =    0.34 sec. (139.67 ticks)
